 Code  2033
 Dimension, Fixed Cost
   100        3000
 Facility, Client, Transportation Cost
     1       14           1
     1       44           3
     1       50           3
     1       59           4
     1       66           1
     1       86           0
     1       89           2
     1       93           1
     1       94           0
     1       98           2
     2        2           1
     2        3           2
     2       29           1
     2       39           4
     2       41           3
     2       46           2
     2       58           4
     2       59           2
     2       70           0
     2       73           1
     3        6           1
     3       22           4
     3       24           3
     3       32           2
     3       44           2
     3       49           3
     3       50           2
     3       61           2
     3       67           2
     3       69           1
     4        6           1
     4        9           3
     4       28           2
     4       32           2
     4       36           0
     4       40           3
     4       43           3
     4       62           4
     4       74           3
     4       75           4
     5       15           0
     5       18           0
     5       20           0
     5       28           4
     5       33           4
     5       35           2
     5       39           0
     5       52           1
     5       57           4
     5       61           3
     6       23           2
     6       27           0
     6       44           4
     6       72           1
     6       83           3
     6       86           4
     6       89           0
     6       96           4
     6       99           3
     6      100           0
     7        2           1
     7        4           3
     7       11           0
     7       18           4
     7       25           1
     7       26           3
     7       42           1
     7       48           0
     7       71           4
     7       75           3
     8        3           1
     8        4           4
     8        7           4
     8       11           2
     8       12           4
     8       14           3
     8       42           1
     8       43           2
     8       48           1
     8       60           3
     9       24           3
     9       31           2
     9       32           1
     9       35           2
     9       46           4
     9       56           0
     9       59           2
     9       71           2
     9       80           0
     9       85           1
    10        3           0
    10       13           3
    10       17           2
    10       59           1
    10       75           1
    10       85           3
    10       93           4
    10       98           0
    10       99           0
    10      100           4
    11       25           1
    11       42           2
    11       49           2
    11       62           1
    11       67           1
    11       70           1
    11       74           0
    11       83           2
    11       87           1
    11       96           4
    12       59           2
    12       75           3
    12       76           4
    12       83           1
    12       86           4
    12       87           2
    12       90           0
    12       95           4
    12       97           2
    12      100           3
    13       17           4
    13       22           0
    13       39           3
    13       41           0
    13       45           1
    13       46           4
    13       51           3
    13       70           0
    13       77           1
    13       92           0
    14       14           2
    14       16           3
    14       18           1
    14       21           3
    14       22           2
    14       34           1
    14       39           0
    14       42           1
    14       69           3
    14       77           0
    15        7           2
    15       31           2
    15       34           0
    15       58           3
    15       73           2
    15       76           2
    15       85           0
    15       91           0
    15       93           3
    15       95           1
    16        5           0
    16       10           2
    16       21           4
    16       30           2
    16       36           0
    16       44           1
    16       55           1
    16       57           1
    16       58           1
    16       64           4
    17        8           3
    17       20           2
    17       36           2
    17       43           2
    17       63           4
    17       71           3
    17       73           2
    17       76           1
    17       91           1
    17       92           3
    18        6           0
    18       18           2
    18       37           1
    18       51           0
    18       65           2
    18       73           3
    18       81           2
    18       84           3
    18       85           2
    18       90           4
    19       12           3
    19       15           4
    19       16           3
    19       18           0
    19       31           1
    19       34           1
    19       46           0
    19       50           3
    19       53           1
    19       56           3
    20        4           2
    20        8           1
    20       21           4
    20       27           3
    20       63           0
    20       64           1
    20       66           0
    20       82           1
    20       88           2
    20       89           0
    21       21           3
    21       26           4
    21       33           2
    21       45           2
    21       47           0
    21       49           2
    21       90           3
    21       92           2
    21       94           0
    21      100           0
    22       32           0
    22       38           2
    22       40           0
    22       57           1
    22       67           3
    22       77           4
    22       96           2
    22       97           0
    22       98           3
    22      100           1
    23        1           4
    23        4           2
    23        7           0
    23       14           3
    23       15           3
    23       18           1
    23       40           0
    23       41           3
    23       51           3
    23       71           4
    24       10           0
    24       23           4
    24       25           0
    24       27           2
    24       31           3
    24       43           3
    24       46           4
    24       47           3
    24       61           1
    24       77           3
    25        1           3
    25       18           4
    25       22           1
    25       23           2
    25       49           1
    25       63           1
    25       64           3
    25       69           0
    25       73           0
    25       77           0
    26        9           4
    26       10           2
    26       27           1
    26       35           3
    26       46           1
    26       78           1
    26       79           2
    26       80           4
    26       88           2
    26       95           1
    27       25           0
    27       33           4
    27       40           0
    27       53           2
    27       54           0
    27       63           1
    27       65           2
    27       76           0
    27       80           0
    27       86           3
    28        1           0
    28        5           1
    28       12           0
    28       19           4
    28       25           2
    28       27           2
    28       42           1
    28       47           1
    28       65           3
    28       81           0
    29        4           4
    29       11           1
    29       15           0
    29       19           3
    29       22           4
    29       29           2
    29       33           3
    29       34           1
    29       43           3
    29       46           3
    30        2           2
    30       27           4
    30       39           4
    30       43           1
    30       50           0
    30       58           0
    30       67           4
    30       88           3
    30       94           0
    30       98           0
    31       12           4
    31       30           0
    31       69           3
    31       71           4
    31       77           3
    31       79           4
    31       82           1
    31       88           1
    31       92           4
    31       98           3
    32        4           4
    32       17           2
    32       26           0
    32       44           2
    32       46           2
    32       52           0
    32       66           1
    32       75           2
    32       79           0
    32       80           4
    33       27           0
    33       44           3
    33       55           0
    33       62           1
    33       82           2
    33       85           1
    33       90           2
    33       91           2
    33       93           1
    33       94           0
    34        7           1
    34       33           0
    34       40           0
    34       64           1
    34       78           1
    34       81           3
    34       83           3
    34       91           3
    34       93           2
    34       94           3
    35       10           2
    35       17           2
    35       23           0
    35       45           0
    35       49           3
    35       54           1
    35       62           4
    35       63           3
    35       77           4
    35       79           4
    36       13           1
    36       20           1
    36       29           2
    36       57           1
    36       85           1
    36       88           4
    36       91           0
    36       95           0
    36       99           0
    36      100           1
    37        7           2
    37       12           2
    37       19           3
    37       27           2
    37       67           2
    37       71           2
    37       79           2
    37       83           4
    37       84           3
    37       85           3
    38        9           4
    38       60           2
    38       73           1
    38       81           0
    38       82           3
    38       86           1
    38       92           3
    38       93           4
    38       98           4
    38       99           0
    39        6           1
    39       10           3
    39       15           2
    39       28           0
    39       30           0
    39       44           4
    39       47           3
    39       48           2
    39       57           1
    39       70           1
    40       12           3
    40       43           0
    40       55           0
    40       61           2
    40       76           1
    40       84           2
    40       93           1
    40       94           4
    40       95           1
    40       97           4
    41        2           3
    41       13           3
    41       23           1
    41       69           2
    41       77           3
    41       81           4
    41       85           4
    41       92           4
    41       97           1
    41       98           1
    42        7           4
    42       11           1
    42       12           1
    42       32           3
    42       50           2
    42       54           1
    42       64           2
    42       72           2
    42       73           0
    42       89           1
    43        8           4
    43       18           4
    43       19           3
    43       24           3
    43       36           4
    43       39           4
    43       40           4
    43       57           2
    43       70           0
    43       73           2
    44        1           2
    44        5           4
    44        6           4
    44       29           0
    44       30           4
    44       35           3
    44       40           4
    44       45           2
    44       59           0
    44       60           1
    45        1           0
    45       15           3
    45       19           1
    45       25           4
    45       26           3
    45       29           2
    45       41           3
    45       72           1
    45       74           2
    45       75           0
    46        2           2
    46       16           0
    46       20           4
    46       21           1
    46       34           3
    46       35           2
    46       54           0
    46       58           4
    46       81           3
    46       84           3
    47        6           0
    47       17           4
    47       21           1
    47       31           1
    47       38           1
    47       45           4
    47       65           2
    47       66           0
    47       72           2
    47       92           4
    48       12           3
    48       22           2
    48       28           4
    48       31           4
    48       35           0
    48       37           1
    48       42           2
    48       46           4
    48       51           4
    48       69           0
    49        3           0
    49        8           3
    49       40           0
    49       49           4
    49       53           3
    49       62           1
    49       77           2
    49       78           4
    49       84           3
    49       89           0
    50        5           2
    50       11           4
    50       28           1
    50       35           1
    50       50           3
    50       54           0
    50       64           1
    50       74           2
    50       76           0
    50       82           4
    51       14           2
    51       19           3
    51       21           0
    51       32           3
    51       37           4
    51       44           0
    51       60           3
    51       70           3
    51       72           0
    51       76           2
    52        2           0
    52        9           4
    52       10           1
    52       16           3
    52       17           1
    52       44           3
    52       48           0
    52       52           4
    52       55           4
    52       62           4
    53       30           2
    53       35           3
    53       36           4
    53       37           3
    53       41           4
    53       45           2
    53       47           4
    53       52           0
    53       68           0
    53       71           2
    54       10           1
    54       13           4
    54       17           3
    54       20           3
    54       41           0
    54       48           0
    54       67           2
    54       68           4
    54       80           0
    54       82           4
    55        4           4
    55        8           2
    55       24           3
    55       25           1
    55       33           3
    55       56           0
    55       84           1
    55       85           1
    55       86           1
    55       87           1
    56        8           3
    56       10           0
    56       37           2
    56       38           2
    56       39           0
    56       47           4
    56       71           4
    56       74           2
    56       83           3
    56      100           3
    57        2           2
    57       14           2
    57       26           2
    57       36           1
    57       41           4
    57       45           3
    57       50           1
    57       62           4
    57       88           3
    57       95           0
    58        1           0
    58        5           4
    58       11           3
    58       14           4
    58       30           0
    58       52           4
    58       59           4
    58       74           4
    58       81           1
    58       91           1
    59       11           4
    59       13           2
    59       16           0
    59       28           4
    59       48           4
    59       50           2
    59       51           1
    59       60           4
    59       61           3
    59       65           3
    60        5           2
    60       14           4
    60       24           4
    60       26           3
    60       30           3
    60       49           2
    60       58           3
    60       75           2
    60       79           3
    60       82           2
    61       24           4
    61       34           0
    61       54           0
    61       56           1
    61       66           1
    61       89           1
    61       92           1
    61       98           0
    61       99           4
    61      100           2
    62        5           0
    62       11           4
    62       14           1
    62       37           3
    62       38           4
    62       52           2
    62       56           3
    62       67           0
    62       68           0
    62       72           0
    63        7           0
    63       36           3
    63       39           4
    63       47           4
    63       55           3
    63       57           0
    63       58           3
    63       65           1
    63       66           3
    63       67           0
    64       36           0
    64       53           0
    64       57           1
    64       64           1
    64       82           2
    64       87           1
    64       88           2
    64       90           2
    64       91           4
    64       92           3
    65        3           0
    65       27           4
    65       31           1
    65       42           3
    65       66           3
    65       84           2
    65       85           3
    65       87           3
    65       92           1
    65       94           1
    66        1           4
    66        5           4
    66       21           3
    66       23           2
    66       26           1
    66       32           0
    66       36           2
    66       39           2
    66       55           2
    66       62           4
    67       13           3
    67       17           0
    67       22           3
    67       24           1
    67       33           1
    67       41           3
    67       59           3
    67       69           2
    67       83           4
    67       88           1
    68        7           0
    68       21           2
    68       29           3
    68       37           3
    68       38           0
    68       47           4
    68       54           3
    68       67           2
    68       70           4
    68       78           2
    69        8           1
    69       15           1
    69       25           1
    69       28           3
    69       41           4
    69       60           4
    69       66           4
    69       68           2
    69       80           1
    69       82           4
    70       28           3
    70       29           3
    70       34           3
    70       38           4
    70       60           4
    70       74           0
    70       78           1
    70       83           1
    70       90           1
    70       96           2
    71       14           4
    71       16           0
    71       19           0
    71       56           3
    71       58           4
    71       64           0
    71       80           4
    71       86           2
    71       87           4
    71       89           1
    72        1           0
    72        3           1
    72        9           0
    72       13           4
    72       15           0
    72       19           1
    72       31           3
    72       33           1
    72       53           4
    72       55           4
    73       11           1
    73       17           0
    73       32           0
    73       43           1
    73       47           0
    73       51           1
    73       59           4
    73       68           3
    73       71           3
    73       73           0
    74        5           0
    74       18           4
    74       22           3
    74       42           0
    74       72           1
    74       74           3
    74       81           4
    74       87           2
    74       97           3
    74       99           1
    75        3           4
    75        9           1
    75       11           0
    75       21           2
    75       39           2
    75       48           0
    75       54           1
    75       60           2
    75       64           0
    75       75           4
    76        4           4
    76        6           1
    76       19           3
    76       20           4
    76       25           4
    76       38           1
    76       52           2
    76       53           3
    76       74           4
    76       94           0
    77        7           1
    77       32           0
    77       44           3
    77       48           3
    77       78           1
    77       90           0
    77       91           4
    77       94           2
    77       95           0
    77       99           4
    78        7           1
    78       13           1
    78       20           4
    78       30           2
    78       32           3
    78       43           4
    78       45           1
    78       56           2
    78       58           1
    78       61           1
    79        1           0
    79       49           0
    79       55           2
    79       57           3
    79       59           0
    79       68           4
    79       76           1
    79       89           4
    79       99           1
    79      100           3
    80       61           3
    80       62           3
    80       64           1
    80       69           4
    80       79           1
    80       86           0
    80       95           4
    80       96           3
    80       97           1
    80       99           2
    81        1           4
    81       52           2
    81       53           0
    81       54           0
    81       61           0
    81       65           0
    81       70           2
    81       75           1
    81       80           2
    81       82           4
    82        9           3
    82       20           4
    82       38           1
    82       55           0
    82       65           0
    82       78           1
    82       79           4
    82       88           3
    82       93           3
    82       96           2
    83       50           2
    83       52           4
    83       72           2
    83       80           2
    83       91           3
    83       96           4
    83       97           4
    83       98           4
    83       99           4
    83      100           1
    84       22           2
    84       58           4
    84       63           0
    84       69           2
    84       72           3
    84       78           1
    84       81           0
    84       84           1
    84       96           0
    84       97           1
    85        2           2
    85        3           1
    85        9           3
    85       18           0
    85       23           2
    85       34           3
    85       38           2
    85       53           2
    85       65           3
    85       68           4
    86        6           0
    86       20           2
    86       26           1
    86       31           4
    86       51           1
    86       63           2
    86       66           0
    86       67           4
    86       68           1
    86       75           2
    87        3           0
    87        6           2
    87       10           4
    87       20           1
    87       23           1
    87       33           0
    87       42           0
    87       68           4
    87       69           4
    87       71           1
    88       15           4
    88       23           1
    88       28           4
    88       45           3
    88       50           2
    88       51           0
    88       56           1
    88       60           4
    88       62           3
    88       70           0
    89        5           3
    89       13           1
    89       16           4
    89       24           4
    89       48           2
    89       51           0
    89       60           2
    89       78           4
    89       87           3
    89       90           0
    90        4           2
    90        8           0
    90       12           0
    90       27           3
    90       29           2
    90       47           2
    90       51           4
    90       72           4
    90       77           0
    90       80           1
    91       16           4
    91       29           2
    91       37           4
    91       48           0
    91       49           4
    91       53           2
    91       66           4
    91       84           1
    91       86           4
    91       89           2
    92        2           3
    92       30           4
    92       36           3
    92       56           1
    92       61           4
    92       63           3
    92       74           0
    92       79           1
    92       87           3
    92       95           3
    93        8           3
    93       42           1
    93       45           0
    93       54           1
    93       56           3
    93       68           0
    93       81           4
    93       83           3
    93       89           4
    93       90           1
    94        6           1
    94        8           2
    94       16           4
    94       19           3
    94       34           1
    94       35           0
    94       41           3
    94       76           1
    94       79           0
    94       87           0
    95        2           3
    95       10           3
    95       40           2
    95       57           1
    95       61           3
    95       63           1
    95       88           2
    95       93           3
    95       95           3
    95       96           0
    96       16           3
    96       24           0
    96       29           1
    96       31           2
    96       37           4
    96       65           3
    96       70           1
    96       78           0
    96       83           3
    96       86           4
    97        3           0
    97        9           4
    97       25           1
    97       26           3
    97       49           4
    97       52           2
    97       53           1
    97       76           1
    97       84           2
    97       91           1
    98        4           3
    98       13           4
    98       15           2
    98       23           1
    98       24           2
    98       26           1
    98       28           0
    98       30           2
    98       33           4
    98       35           1
    99       12           4
    99       17           3
    99       38           1
    99       43           4
    99       46           4
    99       73           4
    99       93           3
    99       96           0
    99       97           0
    99       98           1
   100        9           0
   100       22           0
   100       34           3
   100       37           3
   100       40           4
   100       55           4
   100       63           3
   100       90           0
   100       94           0
   100       97           0
